40	120	9
50	150	6
55	165	6
35	105	3
40	120	9
30	80	9
60	140	6
35	95	6
40	90	9
15	70	9
50	150	6
30	80	9
45	135	3
30	90	6
55	145	6
60	140	3
40	120	6
35	115	9
10	50	3
60	200	9
10	50	3
15	60	6
5	20	3
35	105	9
35	95	6
60	150	6
45	115	3
50	120	9
50	110	9